--- Job hw2-1.gms Start 09/29/23 17:10:21 44.3.0 8b8fb1cb WEX-WEI x86 64bit/MS Windows
--- Applying:
    D:\GAMS\44\gmsprmNT.txt
--- GAMS Parameters defined
    Input "D:\uw madison\524\hw2\hw2-1.gms"
    PageSize 0
    ScrDir "D:\uw madison\524\hw2\225a\"
    SysDir D:\GAMS\44\
    LogOption 3
    ErrMsg 1
    ErrorLog 99
    IDE 1
    LstTitleLeftAligned 1
Licensee: Introduction to Optimization (CS/ISyE/ECE 524) G230906|0002AS-GEN
          UW-Madison, CS Dept., Fall 2023, Prof. Ferris              DCE850
          C:\Users\lanya\Documents\GAMS\gamslice.txt
          License Admin: Michael C. Ferris, ferris@cs.wisc.edu             
          Course license for use within the course and related course work
Processor information: 1 socket(s), 8 core(s), and 16 thread(s) available
GAMS 44.3.0   Copyright (C) 1987-2023 GAMS Development. All rights reserved
--- Starting compilation
--- hw2-1.gms(62) 3 Mb
--- Starting execution: elapsed 0:00:00.016
--- Generating LP model chemmod
--- hw2-1.gms(47) 4 Mb
---   5 rows  4 columns  17 non-zeroes
--- Range statistics (absolute non-zero finite values)
--- RHS       [min, max] : [ 2.000E+02, 1.850E+03] - Zero values observed as well
--- Bound     [min, max] : [        NA,        NA] - Zero values observed as well
--- Matrix    [min, max] : [ 2.000E+00, 1.000E+02]
--- Executing CPLEX (Solvelink=2): elapsed 0:00:00.023

IBM ILOG CPLEX   44.3.0 8b8fb1cb Sep 1, 2023           WEI x86 64bit/MS Window

--- GAMS/CPLEX licensed for continuous and discrete problems.
--- GMO setup time: 0.00s
--- GMO memory 0.50 Mb (peak 0.50 Mb)
--- Dictionary memory 0.00 Mb
--- Cplex 22.1.1.0 link memory 0.00 Mb (peak 0.00 Mb)
--- Starting Cplex

Version identifier: 22.1.1.0 | 2022-11-27 | 9160aff4d
CPXPARAM_Advance                                 0
CPXPARAM_Simplex_Display                         2
CPXPARAM_Threads                                 1
CPXPARAM_MIP_Display                             4
CPXPARAM_MIP_Pool_Capacity                       0
CPXPARAM_MIP_Tolerances_AbsMIPGap                0
Tried aggregator 1 time.
LP Presolve eliminated 0 rows and 1 columns.
Reduced LP has 5 rows, 4 columns, and 17 nonzeros.
Presolve time = 0.02 sec. (0.00 ticks)

Iteration      Dual Objective            In Variable           Out Variable
     1 sI            2.000000                  x(t3)chemical1_con(c1) slack
     2 sI            0.890908                  blend resource_con(r2) slack
     3 sI            0.000000                  x(t1) resource_con(r1) slack
     4              51.400000 resource_con(r2) slack resource_con(r3) slack

--- LP status (1): optimal.
--- Cplex Time: 0.03sec (det. 0.01 ticks)


Optimal solution found
Objective:           51.400000

--- Reading solution for model chemmod
--- Executing after solve: elapsed 0:00:00.202
--- hw2-1.gms(59) 4 Mb
*** Status: Normal completion
--- Job hw2-1.gms Stop 09/29/23 17:10:21 elapsed 0:00:00.204
